c Reduced graph for p09 generated by Cyril Grelier
p edge 25 100
e 1 2
e 1 3
e 1 4
e 1 5
e 1 6
e 1 11
e 1 16
e 1 21
e 2 3
e 2 4
e 2 5
e 2 7
e 2 12
e 2 17
e 2 22
e 3 4
e 3 5
e 3 8
e 3 13
e 3 18
e 3 23
e 4 5
e 4 9
e 4 14
e 4 19
e 4 24
e 5 10
e 5 15
e 5 20
e 5 25
e 6 7
e 6 8
e 6 9
e 6 10
e 6 11
e 6 16
e 6 21
e 7 8
e 7 9
e 7 10
e 7 12
e 7 17
e 7 22
e 8 9
e 8 10
e 8 13
e 8 18
e 8 23
e 9 10
e 9 14
e 9 19
e 9 24
e 10 15
e 10 20
e 10 25
e 11 12
e 11 13
e 11 14
e 11 15
e 11 16
e 11 21
e 12 13
e 12 14
e 12 15
e 12 17
e 12 22
e 13 14
e 13 15
e 13 18
e 13 23
e 14 15
e 14 19
e 14 24
e 15 20
e 15 25
e 16 17
e 16 18
e 16 19
e 16 20
e 16 21
e 17 18
e 17 19
e 17 20
e 17 22
e 18 19
e 18 20
e 18 23
e 19 20
e 19 24
e 20 25
e 21 22
e 21 23
e 21 24
e 21 25
e 22 23
e 22 24
e 22 25
e 23 24
e 23 25
e 24 25
